proyfinal/src/viki/013/andrea/andrea-localstore/experimentInOfficeAgust.take6/worker_6/16dfda69-255b-4c51-98ff-cf923c99166c.als.cnf.out
Reading from standard input... Use '--help' for help.
============================[ Problem Statistics ]=============================
|                                                                             |
|  Number of variables:         87638                                         |
|  Number of clauses:          161767                                         |
|  Parse time:                   0.04 s                                       |
|                                                                             |
============================[ Search Statistics ]==============================
| Conflicts |          ORIGINAL         |          LEARNT          | Progress |
|           |    Vars  Clauses Literals |    Limit  Clauses Lit/Cl |          |
===============================================================================
|       100 |   63979   110872   276994 |    40653      100     15 | 26.996 % |
|       250 |   63979   110872   276994 |    44718      250     24 | 26.996 % |
|       475 |   63979   110872   276994 |    49190      475     34 | 26.996 % |
|       812 |   63978   110828   276904 |    54109      810     41 | 26.997 % |
|      1318 |   63978   110828   276904 |    59520     1316     40 | 26.997 % |
|      2077 |   63974   110812   276860 |    65472     2031     53 | 27.002 % |
|      3216 |   63941   110678   276542 |    72019     3122     70 | 27.040 % |
|      4924 |   63891   110470   276066 |    79221     4828     80 | 27.097 % |
|      7486 |   63858   110344   275750 |    87143     7389     87 | 27.134 % |
|     11330 |   63840   110270   275579 |    95857    11231     88 | 27.155 % |
|     17096 |   53824    79156   199143 |   105443    15913     88 | 38.584 % |
===============================================================================
restarts              : 84
conflicts             : 23270          (6789 /sec)
decisions             : 82213          (0.00 % random) (23984 /sec)
propagations          : 31982019       (9330112 /sec)
conflict literals     : 1904668        (49.38 % deleted)
Memory used           : 39.82 MB
CPU time              : 3.42783 s

INDETERMINATE
